(declare-const x2 Bool)
(declare-const x20 Bool)
(declare-const x1 Bool)
(declare-const x Bool)
(declare-fun b (Int) Bool)
(declare-fun v () Int)
(assert (= 1 (div 2 (* 4 v))))
(assert (exists ((v Int)) (or x2 (and x1 x x20 (b v)))))
(check-sat)
